c description: Graph pigeonhole principle formula on fast_gnp_random_graph(20,10,0.5)
c generator: CNFgen (0.9.0)
c copyright: (C) 2012-2020 Massimo Lauria <massimo.lauria@uniroma1.it>
c url: https://massimolauria.net/cnfgen
c
p cnf 97 459
1 2 3 4 5 0
6 7 8 9 10 11 0
12 13 14 15 16 0
17 18 19 20 21 22 23 0
24 25 26 27 0
28 29 30 31 32 33 0
34 35 36 37 38 0
39 40 41 0
42 43 44 45 46 47 48 0
49 50 51 52 0
53 54 55 56 0
57 58 59 0
60 61 0
62 63 64 65 0
66 67 68 69 70 71 72 0
73 74 75 76 77 0
78 79 80 81 82 83 0
84 85 86 87 88 0
89 90 91 92 0
93 94 95 96 97 0
-6 -17 0
-6 -24 0
-6 -34 0
-6 -42 0
-6 -49 0
-6 -60 0
-6 -62 0
-6 -66 0
-6 -73 0
-6 -78 0
-6 -89 0
-17 -24 0
-17 -34 0
-17 -42 0
-17 -49 0
-17 -60 0
-17 -62 0
-17 -66 0
-17 -73 0
-17 -78 0
-17 -89 0
-24 -34 0
-24 -42 0
-24 -49 0
-24 -60 0
-24 -62 0
-24 -66 0
-24 -73 0
-24 -78 0
-24 -89 0
-34 -42 0
-34 -49 0
-34 -60 0
-34 -62 0
-34 -66 0
-34 -73 0
-34 -78 0
-34 -89 0
-42 -49 0
-42 -60 0
-42 -62 0
-42 -66 0
-42 -73 0
-42 -78 0
-42 -89 0
-49 -60 0
-49 -62 0
-49 -66 0
-49 -73 0
-49 -78 0
-49 -89 0
-60 -62 0
-60 -66 0
-60 -73 0
-60 -78 0
-60 -89 0
-62 -66 0
-62 -73 0
-62 -78 0
-62 -89 0
-66 -73 0
-66 -78 0
-66 -89 0
-73 -78 0
-73 -89 0
-78 -89 0
-7 -18 0
-7 -35 0
-7 -43 0
-7 -53 0
-7 -57 0
-7 -67 0
-7 -74 0
-7 -79 0
-18 -35 0
-18 -43 0
-18 -53 0
-18 -57 0
-18 -67 0
-18 -74 0
-18 -79 0
-35 -43 0
-35 -53 0
-35 -57 0
-35 -67 0
-35 -74 0
-35 -79 0
-43 -53 0
-43 -57 0
-43 -67 0
-43 -74 0
-43 -79 0
-53 -57 0
-53 -67 0
-53 -74 0
-53 -79 0
-57 -67 0
-57 -74 0
-57 -79 0
-67 -74 0
-67 -79 0
-74 -79 0
-12 -19 0
-12 -25 0
-12 -28 0
-12 -36 0
-12 -39 0
-12 -44 0
-12 -63 0
-12 -75 0
-12 -80 0
-12 -93 0
-19 -25 0
-19 -28 0
-19 -36 0
-19 -39 0
-19 -44 0
-19 -63 0
-19 -75 0
-19 -80 0
-19 -93 0
-25 -28 0
-25 -36 0
-25 -39 0
-25 -44 0
-25 -63 0
-25 -75 0
-25 -80 0
-25 -93 0
-28 -36 0
-28 -39 0
-28 -44 0
-28 -63 0
-28 -75 0
-28 -80 0
-28 -93 0
-36 -39 0
-36 -44 0
-36 -63 0
-36 -75 0
-36 -80 0
-36 -93 0
-39 -44 0
-39 -63 0
-39 -75 0
-39 -80 0
-39 -93 0
-44 -63 0
-44 -75 0
-44 -80 0
-44 -93 0
-63 -75 0
-63 -80 0
-63 -93 0
-75 -80 0
-75 -93 0
-80 -93 0
-1 -20 0
-1 -26 0
-1 -29 0
-1 -45 0
-1 -54 0
-1 -68 0
-1 -84 0
-1 -94 0
-20 -26 0
-20 -29 0
-20 -45 0
-20 -54 0
-20 -68 0
-20 -84 0
-20 -94 0
-26 -29 0
-26 -45 0
-26 -54 0
-26 -68 0
-26 -84 0
-26 -94 0
-29 -45 0
-29 -54 0
-29 -68 0
-29 -84 0
-29 -94 0
-45 -54 0
-45 -68 0
-45 -84 0
-45 -94 0
-54 -68 0
-54 -84 0
-54 -94 0
-68 -84 0
-68 -94 0
-84 -94 0
-2 -8 0
-2 -21 0
-2 -37 0
-2 -50 0
-2 -69 0
-2 -76 0
-2 -85 0
-2 -90 0
-2 -95 0
-8 -21 0
-8 -37 0
-8 -50 0
-8 -69 0
-8 -76 0
-8 -85 0
-8 -90 0
-8 -95 0
-21 -37 0
-21 -50 0
-21 -69 0
-21 -76 0
-21 -85 0
-21 -90 0
-21 -95 0
-37 -50 0
-37 -69 0
-37 -76 0
-37 -85 0
-37 -90 0
-37 -95 0
-50 -69 0
-50 -76 0
-50 -85 0
-50 -90 0
-50 -95 0
-69 -76 0
-69 -85 0
-69 -90 0
-69 -95 0
-76 -85 0
-76 -90 0
-76 -95 0
-85 -90 0
-85 -95 0
-90 -95 0
-9 -13 0
-9 -30 0
-9 -51 0
-9 -55 0
-9 -58 0
-9 -61 0
-9 -86 0
-9 -91 0
-13 -30 0
-13 -51 0
-13 -55 0
-13 -58 0
-13 -61 0
-13 -86 0
-13 -91 0
-30 -51 0
-30 -55 0
-30 -58 0
-30 -61 0
-30 -86 0
-30 -91 0
-51 -55 0
-51 -58 0
-51 -61 0
-51 -86 0
-51 -91 0
-55 -58 0
-55 -61 0
-55 -86 0
-55 -91 0
-58 -61 0
-58 -86 0
-58 -91 0
-61 -86 0
-61 -91 0
-86 -91 0
-3 -14 0
-3 -22 0
-3 -31 0
-3 -40 0
-3 -46 0
-3 -77 0
-3 -81 0
-3 -87 0
-14 -22 0
-14 -31 0
-14 -40 0
-14 -46 0
-14 -77 0
-14 -81 0
-14 -87 0
-22 -31 0
-22 -40 0
-22 -46 0
-22 -77 0
-22 -81 0
-22 -87 0
-31 -40 0
-31 -46 0
-31 -77 0
-31 -81 0
-31 -87 0
-40 -46 0
-40 -77 0
-40 -81 0
-40 -87 0
-46 -77 0
-46 -81 0
-46 -87 0
-77 -81 0
-77 -87 0
-81 -87 0
-4 -15 0
-4 -27 0
-4 -32 0
-4 -47 0
-4 -52 0
-4 -64 0
-4 -70 0
-4 -82 0
-15 -27 0
-15 -32 0
-15 -47 0
-15 -52 0
-15 -64 0
-15 -70 0
-15 -82 0
-27 -32 0
-27 -47 0
-27 -52 0
-27 -64 0
-27 -70 0
-27 -82 0
-32 -47 0
-32 -52 0
-32 -64 0
-32 -70 0
-32 -82 0
-47 -52 0
-47 -64 0
-47 -70 0
-47 -82 0
-52 -64 0
-52 -70 0
-52 -82 0
-64 -70 0
-64 -82 0
-70 -82 0
-10 -16 0
-10 -33 0
-10 -41 0
-10 -71 0
-10 -96 0
-16 -33 0
-16 -41 0
-16 -71 0
-16 -96 0
-33 -41 0
-33 -71 0
-33 -96 0
-41 -71 0
-41 -96 0
-71 -96 0
-5 -11 0
-5 -23 0
-5 -38 0
-5 -48 0
-5 -56 0
-5 -59 0
-5 -65 0
-5 -72 0
-5 -83 0
-5 -88 0
-5 -92 0
-5 -97 0
-11 -23 0
-11 -38 0
-11 -48 0
-11 -56 0
-11 -59 0
-11 -65 0
-11 -72 0
-11 -83 0
-11 -88 0
-11 -92 0
-11 -97 0
-23 -38 0
-23 -48 0
-23 -56 0
-23 -59 0
-23 -65 0
-23 -72 0
-23 -83 0
-23 -88 0
-23 -92 0
-23 -97 0
-38 -48 0
-38 -56 0
-38 -59 0
-38 -65 0
-38 -72 0
-38 -83 0
-38 -88 0
-38 -92 0
-38 -97 0
-48 -56 0
-48 -59 0
-48 -65 0
-48 -72 0
-48 -83 0
-48 -88 0
-48 -92 0
-48 -97 0
-56 -59 0
-56 -65 0
-56 -72 0
-56 -83 0
-56 -88 0
-56 -92 0
-56 -97 0
-59 -65 0
-59 -72 0
-59 -83 0
-59 -88 0
-59 -92 0
-59 -97 0
-65 -72 0
-65 -83 0
-65 -88 0
-65 -92 0
-65 -97 0
-72 -83 0
-72 -88 0
-72 -92 0
-72 -97 0
-83 -88 0
-83 -92 0
-83 -97 0
-88 -92 0
-88 -97 0
-92 -97 0